HFSDDW
15	9	3
0	89	1	23	2	76
0	50	1	71	2	33
0	94	1	13	2	32
0	32	1	40	2	11
0	28	1	99	2	52
0	87	1	86	2	79
0	64	1	32	2	60
0	40	1	54	2	80
0	30	1	57	2	6
0	33	1	30	2	10
0	89	1	62	2	15
0	10	1	47	2	4
0	24	1	11	2	44
0	51	1	19	2	3
0	87	1	16	2	38
LBCmax: 305
RELDUE
-1	130	3	6
-1	32	8	2
-1	146	4	8
-1	89	9	2
-1	128	5	5
-1	110	6	7
-1	208	4	2
-1	157	2	6
-1	193	5	4
-1	90	4	7
-1	121	6	4
-1	157	1	7
-1	206	6	9
-1	66	9	3
-1	56	7	9
DDW
121	139
30	34
118	174
84	94
122	134
97	123
200	216
135	179
164	222
79	101
106	136
130	184
200	212
55	77
46	66
